data/lp_files/pEFS/32_7.lp
\ Model foo
\ LP format - for model browsing. Use MPS format to capture full model detail.
Minimize
  z
Subject To
 allocateEach[1]: x[1,1] + x[2,1] = 1
 allocateEach[2]: x[1,2] + x[2,2] = 1
 allocateEach[3]: x[1,3] + x[2,3] = 1
 allocateEach[4]: x[1,4] + x[2,4] = 1
 allocateEach[5]: x[1,5] + x[2,5] = 1
 allocateEach[6]: x[1,6] + x[2,6] = 1
 allocateEach[7]: x[1,7] + x[2,7] = 1
 allocateEach[8]: x[1,8] + x[2,8] = 1
 allocateEach[9]: x[1,9] + x[2,9] = 1
 allocateEach[10]: x[1,10] + x[2,10] = 1
 allocateEach[11]: x[1,11] + x[2,11] = 1
 allocateEach[12]: x[1,12] + x[2,12] = 1
 allocateAllCash: cashProportion[1] + cashProportion[2] = 1
 findWorstP[1,2]: z + 0.0774413381863239 cashProportion[1]
   - 0.0774413381863239 cashProportion[2] + 0.1219701076434601 x[1,1]
   + 0.1047265030073053 x[1,2] + 0.0977438756808384 x[1,3]
   + 0.0666253646196339 x[1,4] + 0.1033841864787423 x[1,5]
   + 0.0983504994966313 x[1,6] + 0.00770541314953922 x[1,7]
   + 0.0400500787320272 x[1,8] + 0.1282686698159477 x[1,9]
   + 0.0825782802860167 x[1,10] + 0.0706135935362296 x[1,11]
   + 5.4208936730426691e-04 x[1,12] - 0.1219701076434601 x[2,1]
   - 0.1047265030073053 x[2,2] - 0.0977438756808384 x[2,3]
   - 0.0666253646196339 x[2,4] - 0.1033841864787423 x[2,5]
   - 0.0983504994966313 x[2,6] - 0.00770541314953922 x[2,7]
   - 0.0400500787320272 x[2,8] - 0.1282686698159477 x[2,9]
   - 0.0825782802860167 x[2,10] - 0.0706135935362296 x[2,11]
   - 5.4208936730426691e-04 x[2,12] >= 0
 findWorstP[2,1]: z - 0.0796855078623035 cashProportion[1]
   + 0.0796855078623035 cashProportion[2] - 0.1083324479388015 x[1,1]
   - 0.1323177858053549 x[1,2] - 0.0416356778580535 x[1,3]
   - 0.0712255631109222 x[1,4] - 0.1322248193795155 x[1,5]
   - 0.00925679983000425 x[1,6] - 0.0176901827454314 x[1,7]
   - 0.0115809604759881 x[1,8] - 0.0883977900552486 x[1,9]
   - 0.068011580960476 x[1,10] - 0.1216532086697833 x[1,11]
   - 0.1179876753081173 x[1,12] + 0.1083324479388015 x[2,1]
   + 0.1323177858053549 x[2,2] + 0.0416356778580535 x[2,3]
   + 0.0712255631109222 x[2,4] + 0.1322248193795155 x[2,5]
   + 0.00925679983000425 x[2,6] + 0.0176901827454314 x[2,7]
   + 0.0115809604759881 x[2,8] + 0.0883977900552486 x[2,9]
   + 0.068011580960476 x[2,10] + 0.1216532086697833 x[2,11]
   + 0.1179876753081173 x[2,12] >= 0
Bounds
 z <= 1
 -infinity <= cashProportion[1] <= 1
 -infinity <= cashProportion[2] <= 1
Binaries
 x[1,1] x[1,2] x[1,3] x[1,4] x[1,5] x[1,6] x[1,7] x[1,8] x[1,9] x[1,10]
 x[1,11] x[1,12] x[2,1] x[2,2] x[2,3] x[2,4] x[2,5] x[2,6] x[2,7] x[2,8]
 x[2,9] x[2,10] x[2,11] x[2,12]
End
