data/mps_files/q3/32_7.mps
NAME foo
ROWS
 N  OBJ
 E  allocateEach[1]
 E  allocateEach[2]
 E  allocateEach[3]
 E  allocateEach[4]
 E  allocateEach[5]
 E  allocateEach[6]
 E  allocateEach[7]
 E  allocateEach[8]
 E  allocateEach[9]
 E  allocateEach[10]
 E  allocateEach[11]
 E  allocateEach[12]
 E  allocateAllCash
 G  findWorstP[1,2]
 G  findWorstP[2,1]
COLUMNS
    z         OBJ       1
    z         findWorstP[1,2]  1
    z         findWorstP[2,1]  1
    cashProportion[1]  allocateAllCash  1
    cashProportion[1]  findWorstP[1,2]  7.7441338186323858e-02
    cashProportion[1]  findWorstP[2,1]  -7.9685507862303454e-02
    cashProportion[2]  allocateAllCash  1
    cashProportion[2]  findWorstP[1,2]  -7.7441338186323858e-02
    cashProportion[2]  findWorstP[2,1]  7.9685507862303454e-02
    MARKER    'MARKER'                 'INTORG'
    x[1,1]    allocateEach[1]  1
    x[1,1]    findWorstP[1,2]  1.2197010764346006e-01
    x[1,1]    findWorstP[2,1]  -1.0833244793880153e-01
    x[1,2]    allocateEach[2]  1
    x[1,2]    findWorstP[1,2]  1.0472650300730528e-01
    x[1,2]    findWorstP[2,1]  -1.3231778580535486e-01
    x[1,3]    allocateEach[3]  1
    x[1,3]    findWorstP[1,2]  9.7743875680838421e-02
    x[1,3]    findWorstP[2,1]  -4.1635677858053548e-02
    x[1,4]    allocateEach[4]  1
    x[1,4]    findWorstP[1,2]  6.6625364619633948e-02
    x[1,4]    findWorstP[2,1]  -7.1225563110922235e-02
    x[1,5]    allocateEach[5]  1
    x[1,5]    findWorstP[1,2]  1.0338418647874234e-01
    x[1,5]    findWorstP[2,1]  -1.3222481937951552e-01
    x[1,6]    allocateEach[6]  1
    x[1,6]    findWorstP[1,2]  9.8350499496631286e-02
    x[1,6]    findWorstP[2,1]  -0.00925679983000425
    x[1,7]    allocateEach[7]  1
    x[1,7]    findWorstP[1,2]  7.7054131495392234e-03
    x[1,7]    findWorstP[2,1]  -1.7690182745431368e-02
    x[1,8]    allocateEach[8]  1
    x[1,8]    findWorstP[1,2]  4.0050078732027150e-02
    x[1,8]    findWorstP[2,1]  -1.1580960475988101e-02
    x[1,9]    allocateEach[9]  1
    x[1,9]    findWorstP[1,2]  1.2826866981594773e-01
    x[1,9]    findWorstP[2,1]  -8.8397790055248615e-02
    x[1,10]   allocateEach[10]  1
    x[1,10]   findWorstP[1,2]  8.2578280286016673e-02
    x[1,10]   findWorstP[2,1]  -6.8011580960475992e-02
    x[1,11]   allocateEach[11]  1
    x[1,11]   findWorstP[1,2]  7.0613593536229632e-02
    x[1,11]   findWorstP[2,1]  -1.2165320866978327e-01
    x[1,12]   allocateEach[12]  1
    x[1,12]   findWorstP[1,2]  5.4208936730426691e-04
    x[1,12]   findWorstP[2,1]  -1.1798767530811730e-01
    x[2,1]    allocateEach[1]  1
    x[2,1]    findWorstP[1,2]  -1.2197010764346006e-01
    x[2,1]    findWorstP[2,1]  1.0833244793880153e-01
    x[2,2]    allocateEach[2]  1
    x[2,2]    findWorstP[1,2]  -1.0472650300730528e-01
    x[2,2]    findWorstP[2,1]  1.3231778580535486e-01
    x[2,3]    allocateEach[3]  1
    x[2,3]    findWorstP[1,2]  -9.7743875680838421e-02
    x[2,3]    findWorstP[2,1]  4.1635677858053548e-02
    x[2,4]    allocateEach[4]  1
    x[2,4]    findWorstP[1,2]  -6.6625364619633948e-02
    x[2,4]    findWorstP[2,1]  7.1225563110922235e-02
    x[2,5]    allocateEach[5]  1
    x[2,5]    findWorstP[1,2]  -1.0338418647874234e-01
    x[2,5]    findWorstP[2,1]  1.3222481937951552e-01
    x[2,6]    allocateEach[6]  1
    x[2,6]    findWorstP[1,2]  -9.8350499496631286e-02
    x[2,6]    findWorstP[2,1]  0.00925679983000425
    x[2,7]    allocateEach[7]  1
    x[2,7]    findWorstP[1,2]  -7.7054131495392234e-03
    x[2,7]    findWorstP[2,1]  1.7690182745431368e-02
    x[2,8]    allocateEach[8]  1
    x[2,8]    findWorstP[1,2]  -4.0050078732027150e-02
    x[2,8]    findWorstP[2,1]  1.1580960475988101e-02
    x[2,9]    allocateEach[9]  1
    x[2,9]    findWorstP[1,2]  -1.2826866981594773e-01
    x[2,9]    findWorstP[2,1]  8.8397790055248615e-02
    x[2,10]   allocateEach[10]  1
    x[2,10]   findWorstP[1,2]  -8.2578280286016673e-02
    x[2,10]   findWorstP[2,1]  6.8011580960475992e-02
    x[2,11]   allocateEach[11]  1
    x[2,11]   findWorstP[1,2]  -7.0613593536229632e-02
    x[2,11]   findWorstP[2,1]  1.2165320866978327e-01
    x[2,12]   allocateEach[12]  1
    x[2,12]   findWorstP[1,2]  -5.4208936730426691e-04
    x[2,12]   findWorstP[2,1]  1.1798767530811730e-01
    MARKER    'MARKER'                 'INTEND'
RHS
    RHS1      allocateEach[1]  1
    RHS1      allocateEach[2]  1
    RHS1      allocateEach[3]  1
    RHS1      allocateEach[4]  1
    RHS1      allocateEach[5]  1
    RHS1      allocateEach[6]  1
    RHS1      allocateEach[7]  1
    RHS1      allocateEach[8]  1
    RHS1      allocateEach[9]  1
    RHS1      allocateEach[10]  1
    RHS1      allocateEach[11]  1
    RHS1      allocateEach[12]  1
    RHS1      allocateAllCash  1
BOUNDS
 UP BND1      z         1
 MI BND1      cashProportion[1]
 UP BND1      cashProportion[1]  1
 MI BND1      cashProportion[2]
 UP BND1      cashProportion[2]  1
 BV BND1      x[1,1]  
 BV BND1      x[1,2]  
 BV BND1      x[1,3]  
 BV BND1      x[1,4]  
 BV BND1      x[1,5]  
 BV BND1      x[1,6]  
 BV BND1      x[1,7]  
 BV BND1      x[1,8]  
 BV BND1      x[1,9]  
 BV BND1      x[1,10] 
 BV BND1      x[1,11] 
 BV BND1      x[1,12] 
 BV BND1      x[2,1]  
 BV BND1      x[2,2]  
 BV BND1      x[2,3]  
 BV BND1      x[2,4]  
 BV BND1      x[2,5]  
 BV BND1      x[2,6]  
 BV BND1      x[2,7]  
 BV BND1      x[2,8]  
 BV BND1      x[2,9]  
 BV BND1      x[2,10] 
 BV BND1      x[2,11] 
 BV BND1      x[2,12] 
ENDATA
